J = 10;
M = 10;

machine = array2d(JOB,TASK, [
    1,7,4,9,3,10,5,8,6,2,
    4,2,9,6,1,7,3,10,5,8,
    2,6,10,5,8,3,7,1,9,4,
    9,5,1,7,2,4,8,3,6,10,
    3,10,6,1,4,8,5,2,9,7,
    7,3,8,10,5,6,1,9,4,2,
    6,9,2,3,7,1,10,5,8,4,
    8,1,3,4,2,9,7,6,10,5,
    5,8,7,2,10,4,6,3,1,9,
    10,4,5,8,9,2,3,7,1,6
]);

duration = array2d(JOB, MACH, [
    21,35,61,74,92,56,48,29,87,69,
    44,72,58,93,36,77,49,84,52,63,
    67,41,90,53,38,81,72,46,88,34,
    93,64,25,57,48,77,39,71,32,90,
    55,82,44,91,63,28,75,53,36,88,
    72,49,95,61,43,84,57,31,78,66,
    81,57,46,88,42,95,63,74,29,51,
    33,98,52,71,64,27,85,91,43,59,
    76,39,94,58,83,47,68,35,90,21,
    49,67,32,75,91,54,43,88,63,72
]);
